; Copyright (c) 2026 The RIINA Authors. All rights reserved.
; Copyright (c) 2026 The RIINA Authors.
; Auto-generated from 02_FORMAL/coq/domains/MemorySafety.v (139 assertions)
; Generated by scripts/generate-full-stack.py
; Module: MemorySafety

(set-logic ALL)
(set-option :produce-models true)

; AllocState (matches Coq: Inductive AllocState)
(declare-datatypes ((AllocState 0)) (((Unallocated) (Allocated) (Valid) (Null) (Dangling))))

; SecurityDomain (matches Coq: Inductive SecurityDomain)
(declare-datatypes ((SecurityDomain 0)) (((DomainKernel) (DomainUser) (DomainGuest) (PermNone) (PermRead) (PermWrite) (PermReadWrite))))

; MemoryRegion (matches Coq: Record MemoryRegion)
(declare-datatypes ((MemoryRegion 0))
  (((mk-memory_region (mr_alloc_state AllocState) (mr_size Int) (mr_initialized Bool) (mr_owned Bool)))))

; Pointer (matches Coq: Record Pointer)
(declare-datatypes ((Pointer 0))
  (((mk-pointer (ptr_validity PointerValidity) (ptr_offset Int) (ptr_bounds Int)))))

; SecureMemoryRegion (matches Coq: Record SecureMemoryRegion)
(declare-datatypes ((SecureMemoryRegion 0))
  (((mk-secure_memory_region (smr_base MemoryRegion) (smr_domain SecurityDomain) (smr_permission AccessPermission) (smr_encrypted Bool)))))

; UseAfterFreeGuard (matches Coq: Record UseAfterFreeGuard)
(declare-datatypes ((UseAfterFreeGuard 0))
  (((mk-use_after_free_guard (uaf_lifetime_tracking Bool) (uaf_ownership_clear Bool) (uaf_access_check Bool)))))

; DoubleFreeGuard (matches Coq: Record DoubleFreeGuard)
(declare-datatypes ((DoubleFreeGuard 0))
  (((mk-double_free_guard (df_state_tracking Bool) (df_single_owner Bool) (df_freed_check Bool)))))

; NullDerefGuard (matches Coq: Record NullDerefGuard)
(declare-datatypes ((NullDerefGuard 0))
  (((mk-null_deref_guard (nd_null_check Bool) (nd_option_types Bool) (nd_init_required Bool)))))

; BoundsGuard (matches Coq: Record BoundsGuard)
(declare-datatypes ((BoundsGuard 0))
  (((mk-bounds_guard (bg_bounds_check Bool) (bg_fat_pointers Bool) (bg_slice_safety Bool)))))

; StackGuard (matches Coq: Record StackGuard)
(declare-datatypes ((StackGuard 0))
  (((mk-stack_guard (sg_canary_enabled Bool) (sg_return_addr_protected Bool) (sg_frame_isolation Bool) (sg_shadow_stack Bool)))))

; HeapGuard (matches Coq: Record HeapGuard)
(declare-datatypes ((HeapGuard 0))
  (((mk-heap_guard (hg_allocation_tracking Bool) (hg_deallocation_check Bool) (hg_fragmentation_prevention Bool) (hg_metadata_integrity Bool)))))

; IsolationGuard (matches Coq: Record IsolationGuard)
(declare-datatypes ((IsolationGuard 0))
  (((mk-isolation_guard (ig_domain_separation Bool) (ig_permission_enforcement Bool) (ig_cross_domain_check Bool) (ig_capability_required Bool)))))

; MemorySafetyConfig (matches Coq: Record MemorySafetyConfig)
(declare-datatypes ((MemorySafetyConfig 0))
  (((mk-memory_safety_config (ms_uaf UseAfterFreeGuard) (ms_df DoubleFreeGuard) (ms_nd NullDerefGuard) (ms_bounds BoundsGuard) (ms_stack StackGuard) (ms_heap HeapGuard) (ms_isolation IsolationGuard)))))

; uaf_protected (matches Coq: Definition uaf_protected)
(define-fun uaf_protected ((u UseAfterFreeGuard)) Bool
  (and (uaf_lifetime_tracking u) (uaf_ownership_clear u) (uaf_access_check u)))

; df_protected (matches Coq: Definition df_protected)
(define-fun df_protected ((d DoubleFreeGuard)) Bool
  (and (df_state_tracking d) (df_single_owner d) (df_freed_check d)))

; nd_protected (matches Coq: Definition nd_protected)
(define-fun nd_protected ((n NullDerefGuard)) Bool
  (and (nd_null_check n) (nd_option_types n) (nd_init_required n)))

; bounds_protected (matches Coq: Definition bounds_protected)
(define-fun bounds_protected ((b BoundsGuard)) Bool
  (and (bg_bounds_check b) (bg_fat_pointers b) (bg_slice_safety b)))

; stack_protected (matches Coq: Definition stack_protected)
(define-fun stack_protected ((s StackGuard)) Bool
  (and (sg_canary_enabled s) (sg_return_addr_protected s) (sg_frame_isolation s) (sg_shadow_stack s)))

; heap_protected (matches Coq: Definition heap_protected)
(define-fun heap_protected ((h HeapGuard)) Bool
  (and (hg_allocation_tracking h) (hg_deallocation_check h) (hg_fragmentation_prevention h) (hg_metadata_integrity h)))

; isolation_protected (matches Coq: Definition isolation_protected)
(define-fun isolation_protected ((i IsolationGuard)) Bool
  (and (ig_domain_separation i) (ig_permission_enforcement i) (ig_cross_domain_check i) (ig_capability_required i)))

; memory_safe (matches Coq: Definition memory_safe)
(define-fun memory_safe ((m MemorySafetyConfig)) Bool
  true)

; ptr_is_valid (matches Coq: Definition ptr_is_valid)
(define-fun ptr_is_valid ((p Pointer)) Bool
  true)

; ptr_is_null (matches Coq: Definition ptr_is_null)
(define-fun ptr_is_null ((p Pointer)) Bool
  true)

; ptr_is_dangling (matches Coq: Definition ptr_is_dangling)
(define-fun ptr_is_dangling ((p Pointer)) Bool
  true)

; ptr_in_bounds (matches Coq: Definition ptr_in_bounds)
(define-fun ptr_in_bounds ((p Pointer)) Bool
  Nat)

; ptr_safe_for_access (matches Coq: Definition ptr_safe_for_access)
(define-fun ptr_safe_for_access ((p Pointer)) Bool
  (and (ptr_is_valid p) (ptr_in_bounds p)))

; ptr_safe_for_access_range (matches Coq: Definition ptr_safe_for_access_range)
(define-fun ptr_safe_for_access_range ((p Pointer) (len Int)) Bool
  (and (ptr_is_valid p) Nat))

; region_is_allocated (matches Coq: Definition region_is_allocated)
(define-fun region_is_allocated ((r MemoryRegion)) Bool
  true)

; region_is_freed (matches Coq: Definition region_is_freed)
(define-fun region_is_freed ((r MemoryRegion)) Bool
  true)

; region_can_access (matches Coq: Definition region_can_access)
(define-fun region_can_access ((r MemoryRegion)) Bool
  (and (region_is_allocated r) (mr_owned r)))

; region_can_write (matches Coq: Definition region_can_write)
(define-fun region_can_write ((r MemoryRegion)) Bool
  (and (region_is_allocated r) (mr_owned r) (mr_initialized r)))

; domain_level (matches Coq: Definition domain_level)
(define-fun domain_level ((d SecurityDomain)) Int
  true)

; domain_can_access (matches Coq: Definition domain_can_access)
(define-fun domain_can_access () Bool Nat)

; permission_allows_read (matches Coq: Definition permission_allows_read)
(define-fun permission_allows_read ((p AccessPermission)) Bool
  true)

; permission_allows_write (matches Coq: Definition permission_allows_write)
(define-fun permission_allows_write ((p AccessPermission)) Bool
  true)

; secure_region_can_read (matches Coq: Definition secure_region_can_read)
(define-fun secure_region_can_read ((r SecureMemoryRegion) (from SecurityDomain)) Bool
  true)

; secure_region_can_write (matches Coq: Definition secure_region_can_write)
(define-fun secure_region_can_write ((r SecureMemoryRegion) (from SecurityDomain)) Bool
  true)

; riina_uaf (matches Coq: Definition riina_uaf)
(define-fun riina_uaf () UseAfterFreeGuard
  (mk-use_after_free_guard true true true))

; riina_df (matches Coq: Definition riina_df)
(define-fun riina_df () DoubleFreeGuard
  (mk-double_free_guard true true true))

; riina_nd (matches Coq: Definition riina_nd)
(define-fun riina_nd () NullDerefGuard
  (mk-null_deref_guard true true true))

; riina_bounds (matches Coq: Definition riina_bounds)
(define-fun riina_bounds () BoundsGuard
  (mk-bounds_guard true true true))

; riina_stack (matches Coq: Definition riina_stack)
(define-fun riina_stack () StackGuard
  (mk-stack_guard true true true true))

; riina_heap (matches Coq: Definition riina_heap)
(define-fun riina_heap () HeapGuard
  (mk-heap_guard true true true true))

; riina_isolation (matches Coq: Definition riina_isolation)
(define-fun riina_isolation () IsolationGuard
  (mk-isolation_guard true true true true))

; riina_mem_safety (matches Coq: Definition riina_mem_safety)
(define-fun riina_mem_safety () MemorySafetyConfig
  (mk-memory_safety_config (riina_uaf) (riina_df) (riina_nd) (riina_bounds) (riina_stack) (riina_heap) (riina_isolation)))

; valid_pointer (matches Coq: Definition valid_pointer)
(define-fun valid_pointer () Pointer
  (mk-pointer Valid 10 100))

; null_pointer (matches Coq: Definition null_pointer)
(define-fun null_pointer () Pointer
  (mk-pointer Null 0 0))

; dangling_pointer (matches Coq: Definition dangling_pointer)
(define-fun dangling_pointer () Pointer
  (mk-pointer Dangling 5 50))

; oob_pointer (matches Coq: Definition oob_pointer)
(define-fun oob_pointer () Pointer
  (mk-pointer OutOfBounds 100 50))

; allocated_region (matches Coq: Definition allocated_region)
(define-fun allocated_region () MemoryRegion
  (mk-memory_region Allocated 1024 true true))

; freed_region (matches Coq: Definition freed_region)
(define-fun freed_region () MemoryRegion
  (mk-memory_region Freed 1024 false false))

; unallocated_region (matches Coq: Definition unallocated_region)
(define-fun unallocated_region () MemoryRegion
  (mk-memory_region Unallocated 0 false false))

; kernel_region (matches Coq: Definition kernel_region)
(define-fun kernel_region () SecureMemoryRegion
  (mk-secure_memory_region (allocated_region) DomainKernel PermReadWrite false))

; user_region (matches Coq: Definition user_region)
(define-fun user_region () SecureMemoryRegion
  (mk-secure_memory_region (allocated_region) DomainUser PermReadWrite false))

; guest_region (matches Coq: Definition guest_region)
(define-fun guest_region () SecureMemoryRegion
  (mk-secure_memory_region (allocated_region) DomainGuest PermRead false))

; andb_true_iff (matches Coq: Lemma andb_true_iff)
(assert (= true true)) ; andb_true_iff [untranslatable]

; andb_false_iff (matches Coq: Lemma andb_false_iff)
(assert (= true true)) ; andb_false_iff [untranslatable]

; negb_true_iff (matches Coq: Lemma negb_true_iff)
(assert (= true true)) ; negb_true_iff [untranslatable]

; negb_false_iff (matches Coq: Lemma negb_false_iff)
(assert (= true true)) ; negb_false_iff [untranslatable]

; MEM_001 (matches Coq: Theorem MEM_001)
(assert (= (uaf_protected riina_uaf) true)) ; MEM_001

; MEM_002 (matches Coq: Theorem MEM_002)
(assert (= (df_protected riina_df) true)) ; MEM_002

; MEM_003 (matches Coq: Theorem MEM_003)
(assert (= (nd_protected riina_nd) true)) ; MEM_003

; MEM_004 (matches Coq: Theorem MEM_004)
(assert (= (bounds_protected riina_bounds) true)) ; MEM_004

; MEM_005 (matches Coq: Theorem MEM_005)
(assert (= (memory_safe riina_mem_safety) true)) ; MEM_005

; MEM_006 (matches Coq: Theorem MEM_006)
(assert (= (uaf_lifetime_tracking riina_uaf) true)) ; MEM_006

; MEM_007 (matches Coq: Theorem MEM_007)
(assert (= (uaf_ownership_clear riina_uaf) true)) ; MEM_007

; MEM_008 (matches Coq: Theorem MEM_008)
(assert (= (uaf_access_check riina_uaf) true)) ; MEM_008

; MEM_009 (matches Coq: Theorem MEM_009)
(assert (= (df_state_tracking riina_df) true)) ; MEM_009

; MEM_010 (matches Coq: Theorem MEM_010)
(assert (= (df_single_owner riina_df) true)) ; MEM_010

; MEM_011 (matches Coq: Theorem MEM_011)
(assert (= (df_freed_check riina_df) true)) ; MEM_011

; MEM_012 (matches Coq: Theorem MEM_012)
(assert (= (nd_null_check riina_nd) true)) ; MEM_012

; MEM_013 (matches Coq: Theorem MEM_013)
(assert (= (nd_option_types riina_nd) true)) ; MEM_013

; MEM_014 (matches Coq: Theorem MEM_014)
(assert (= (bg_bounds_check riina_bounds) true)) ; MEM_014

; MEM_015 (matches Coq: Theorem MEM_015)
(assert (= (bg_fat_pointers riina_bounds) true)) ; MEM_015

; MEM_016 (matches Coq: Theorem MEM_016)
(assert (= true true)) ; MEM_016 [untranslatable]

; MEM_017 (matches Coq: Theorem MEM_017)
(assert (= true true)) ; MEM_017 [untranslatable]

; MEM_018 (matches Coq: Theorem MEM_018)
(assert (= true true)) ; MEM_018 [untranslatable]

; MEM_019 (matches Coq: Theorem MEM_019)
(assert (= true true)) ; MEM_019 [untranslatable]

; MEM_020 (matches Coq: Theorem MEM_020)
(assert (= true true)) ; MEM_020 [untranslatable]

; MEM_021 (matches Coq: Theorem MEM_021)
(assert (= true true)) ; MEM_021 [untranslatable]

; MEM_022 (matches Coq: Theorem MEM_022)
(assert (= true true)) ; MEM_022 [untranslatable]

; MEM_023 (matches Coq: Theorem MEM_023)
(assert (= true true)) ; MEM_023 [untranslatable]

; MEM_024 (matches Coq: Theorem MEM_024)
(assert (= true true)) ; MEM_024 [untranslatable]

; MEM_025 (matches Coq: Theorem MEM_025)
(assert (= true true)) ; MEM_025 [untranslatable]

; MEM_026 (matches Coq: Theorem MEM_026)
(assert (= true true)) ; MEM_026 [untranslatable]

; MEM_027 (matches Coq: Theorem MEM_027)
(assert (= true true)) ; MEM_027 [untranslatable]

; MEM_028 (matches Coq: Theorem MEM_028)
(assert (= true true)) ; MEM_028 [untranslatable]

; MEM_029 (matches Coq: Theorem MEM_029)
(assert (= true true)) ; MEM_029 [untranslatable]

; MEM_030 (matches Coq: Theorem MEM_030)
(assert (= true true)) ; MEM_030 [untranslatable]

; MEM_031 (matches Coq: Theorem MEM_031)
(assert (= true true)) ; MEM_031 [untranslatable]

; MEM_032 (matches Coq: Theorem MEM_032)
(assert (= true true)) ; MEM_032 [untranslatable]

; MEM_033 (matches Coq: Theorem MEM_033)
(assert (= true true)) ; MEM_033 [untranslatable]

; MEM_034 (matches Coq: Theorem MEM_034)
(assert (= true true)) ; MEM_034 [untranslatable]

; MEM_035 (matches Coq: Theorem MEM_035)
(assert (= true true)) ; MEM_035 [untranslatable]

; MEM_036 (matches Coq: Theorem MEM_036)
(assert (and (= (uaf_protected riina_uaf) true) (= (df_protected riina_df) true))) ; MEM_036

; MEM_037 (matches Coq: Theorem MEM_037)
(assert (and (= (nd_protected riina_nd) true) (= (bounds_protected riina_bounds) true))) ; MEM_037

; MEM_038 (matches Coq: Theorem MEM_038)
(assert (= true true)) ; MEM_038 [untranslatable]

; MEM_039 (matches Coq: Theorem MEM_039)
(assert (= true true)) ; MEM_039 [untranslatable]

; MEM_040_complete (matches Coq: Theorem MEM_040_complete)
(assert (= true true)) ; MEM_040_complete [untranslatable]

; MEM_041_valid_pointer_is_valid (matches Coq: Theorem MEM_041_valid_pointer_is_valid)
(assert (= (ptr_is_valid valid_pointer) true)) ; MEM_041_valid_pointer_is_valid

; MEM_042_null_pointer_not_valid (matches Coq: Theorem MEM_042_null_pointer_not_valid)
(assert (= (ptr_is_valid null_pointer) false)) ; MEM_042_null_pointer_not_valid

; MEM_043_dangling_pointer_not_valid (matches Coq: Theorem MEM_043_dangling_pointer_not_valid)
(assert (= (ptr_is_valid dangling_pointer) false)) ; MEM_043_dangling_pointer_not_valid

; MEM_044_oob_pointer_not_valid (matches Coq: Theorem MEM_044_oob_pointer_not_valid)
(assert (= (ptr_is_valid oob_pointer) false)) ; MEM_044_oob_pointer_not_valid

; MEM_045_null_pointer_is_null (matches Coq: Theorem MEM_045_null_pointer_is_null)
(assert (= (ptr_is_null null_pointer) true)) ; MEM_045_null_pointer_is_null

; MEM_046_valid_pointer_not_null (matches Coq: Theorem MEM_046_valid_pointer_not_null)
(assert (= (ptr_is_null valid_pointer) false)) ; MEM_046_valid_pointer_not_null

; MEM_047_dangling_is_dangling (matches Coq: Theorem MEM_047_dangling_is_dangling)
(assert (= (ptr_is_dangling dangling_pointer) true)) ; MEM_047_dangling_is_dangling

; MEM_048_valid_not_dangling (matches Coq: Theorem MEM_048_valid_not_dangling)
(assert (= (ptr_is_dangling valid_pointer) false)) ; MEM_048_valid_not_dangling

; MEM_049_valid_in_bounds (matches Coq: Theorem MEM_049_valid_in_bounds)
(assert (= (ptr_in_bounds valid_pointer) true)) ; MEM_049_valid_in_bounds

; MEM_050_oob_not_in_bounds (matches Coq: Theorem MEM_050_oob_not_in_bounds)
(assert (= (ptr_in_bounds oob_pointer) false)) ; MEM_050_oob_not_in_bounds

; MEM_051_valid_safe_for_access (matches Coq: Theorem MEM_051_valid_safe_for_access)
(assert (= (ptr_safe_for_access valid_pointer) true)) ; MEM_051_valid_safe_for_access

; MEM_052_null_not_safe_for_access (matches Coq: Theorem MEM_052_null_not_safe_for_access)
(assert (= (ptr_safe_for_access null_pointer) false)) ; MEM_052_null_not_safe_for_access

; MEM_053_dangling_not_safe_for_access (matches Coq: Theorem MEM_053_dangling_not_safe_for_access)
(assert (= (ptr_safe_for_access dangling_pointer) false)) ; MEM_053_dangling_not_safe_for_access

; MEM_054_safe_access_implies_valid (matches Coq: Theorem MEM_054_safe_access_implies_valid)
(assert (= true true)) ; MEM_054_safe_access_implies_valid [untranslatable]

; MEM_055_safe_access_implies_in_bounds (matches Coq: Theorem MEM_055_safe_access_implies_in_bounds)
(assert (= true true)) ; MEM_055_safe_access_implies_in_bounds [untranslatable]

; MEM_056_allocated_region_is_allocated (matches Coq: Theorem MEM_056_allocated_region_is_allocated)
(assert (= (region_is_allocated allocated_region) true)) ; MEM_056_allocated_region_is_allocated

; MEM_057_freed_region_not_allocated (matches Coq: Theorem MEM_057_freed_region_not_allocated)
(assert (= (region_is_allocated freed_region) false)) ; MEM_057_freed_region_not_allocated

; MEM_058_unallocated_region_not_allocated (matches Coq: Theorem MEM_058_unallocated_region_not_allocated)
(assert (= (region_is_allocated unallocated_region) false)) ; MEM_058_unallocated_region_not_allocated

; MEM_059_freed_region_is_freed (matches Coq: Theorem MEM_059_freed_region_is_freed)
(assert (= (region_is_freed freed_region) true)) ; MEM_059_freed_region_is_freed

; MEM_060_allocated_region_not_freed (matches Coq: Theorem MEM_060_allocated_region_not_freed)
(assert (= (region_is_freed allocated_region) false)) ; MEM_060_allocated_region_not_freed

; MEM_061_allocated_can_access (matches Coq: Theorem MEM_061_allocated_can_access)
(assert (= (region_can_access allocated_region) true)) ; MEM_061_allocated_can_access

; MEM_062_freed_cannot_access (matches Coq: Theorem MEM_062_freed_cannot_access)
(assert (= (region_can_access freed_region) false)) ; MEM_062_freed_cannot_access

; MEM_063_access_implies_allocated (matches Coq: Theorem MEM_063_access_implies_allocated)
(assert (= true true)) ; MEM_063_access_implies_allocated [untranslatable]

; MEM_064_access_implies_owned (matches Coq: Theorem MEM_064_access_implies_owned)
(assert (= true true)) ; MEM_064_access_implies_owned [untranslatable]

; MEM_065_uaf_prevented (matches Coq: Theorem MEM_065_uaf_prevented)
(assert (= true true)) ; MEM_065_uaf_prevented [untranslatable]

; MEM_066_stack_protected (matches Coq: Theorem MEM_066_stack_protected)
(assert (= (stack_protected riina_stack) true)) ; MEM_066_stack_protected

; MEM_067_canary_enabled (matches Coq: Theorem MEM_067_canary_enabled)
(assert (= (sg_canary_enabled riina_stack) true)) ; MEM_067_canary_enabled

; MEM_068_return_addr_protected (matches Coq: Theorem MEM_068_return_addr_protected)
(assert (= (sg_return_addr_protected riina_stack) true)) ; MEM_068_return_addr_protected

; MEM_069_frame_isolation (matches Coq: Theorem MEM_069_frame_isolation)
(assert (= (sg_frame_isolation riina_stack) true)) ; MEM_069_frame_isolation

; MEM_070_shadow_stack (matches Coq: Theorem MEM_070_shadow_stack)
(assert (= (sg_shadow_stack riina_stack) true)) ; MEM_070_shadow_stack

; MEM_071_stack_implies_canary (matches Coq: Theorem MEM_071_stack_implies_canary)
(assert (= true true)) ; MEM_071_stack_implies_canary [untranslatable]

; MEM_072_stack_implies_return_protected (matches Coq: Theorem MEM_072_stack_implies_return_protected)
(assert (= true true)) ; MEM_072_stack_implies_return_protected [untranslatable]

; MEM_073_stack_implies_frame_isolation (matches Coq: Theorem MEM_073_stack_implies_frame_isolation)
(assert (= true true)) ; MEM_073_stack_implies_frame_isolation [untranslatable]

; MEM_074_stack_implies_shadow (matches Coq: Theorem MEM_074_stack_implies_shadow)
(assert (= true true)) ; MEM_074_stack_implies_shadow [untranslatable]

; MEM_075_complete_stack_protection (matches Coq: Theorem MEM_075_complete_stack_protection)
(assert (= true true)) ; MEM_075_complete_stack_protection [untranslatable]

; MEM_076_heap_protected (matches Coq: Theorem MEM_076_heap_protected)
(assert (= (heap_protected riina_heap) true)) ; MEM_076_heap_protected

; MEM_077_allocation_tracking (matches Coq: Theorem MEM_077_allocation_tracking)
(assert (= (hg_allocation_tracking riina_heap) true)) ; MEM_077_allocation_tracking

; MEM_078_deallocation_check (matches Coq: Theorem MEM_078_deallocation_check)
(assert (= (hg_deallocation_check riina_heap) true)) ; MEM_078_deallocation_check

; MEM_079_fragmentation_prevention (matches Coq: Theorem MEM_079_fragmentation_prevention)
(assert (= (hg_fragmentation_prevention riina_heap) true)) ; MEM_079_fragmentation_prevention

; MEM_080_metadata_integrity (matches Coq: Theorem MEM_080_metadata_integrity)
(assert (= (hg_metadata_integrity riina_heap) true)) ; MEM_080_metadata_integrity

; MEM_081_heap_implies_allocation_tracking (matches Coq: Theorem MEM_081_heap_implies_allocation_tracking)
(assert (= true true)) ; MEM_081_heap_implies_allocation_tracking [untranslatable]

; MEM_082_heap_implies_deallocation_check (matches Coq: Theorem MEM_082_heap_implies_deallocation_check)
(assert (= true true)) ; MEM_082_heap_implies_deallocation_check [untranslatable]

; MEM_083_heap_implies_fragmentation_prevention (matches Coq: Theorem MEM_083_heap_implies_fragmentation_prevention)
(assert (= true true)) ; MEM_083_heap_implies_fragmentation_prevention [untranslatable]

; MEM_084_heap_implies_metadata_integrity (matches Coq: Theorem MEM_084_heap_implies_metadata_integrity)
(assert (= true true)) ; MEM_084_heap_implies_metadata_integrity [untranslatable]

; MEM_085_complete_heap_protection (matches Coq: Theorem MEM_085_complete_heap_protection)
(assert (= true true)) ; MEM_085_complete_heap_protection [untranslatable]

; MEM_086_isolation_protected (matches Coq: Theorem MEM_086_isolation_protected)
(assert (= (isolation_protected riina_isolation) true)) ; MEM_086_isolation_protected

; MEM_087_domain_separation (matches Coq: Theorem MEM_087_domain_separation)
(assert (= (ig_domain_separation riina_isolation) true)) ; MEM_087_domain_separation

; MEM_088_permission_enforcement (matches Coq: Theorem MEM_088_permission_enforcement)
(assert (= (ig_permission_enforcement riina_isolation) true)) ; MEM_088_permission_enforcement

; MEM_089_cross_domain_check (matches Coq: Theorem MEM_089_cross_domain_check)
(assert (= (ig_cross_domain_check riina_isolation) true)) ; MEM_089_cross_domain_check

; MEM_090_capability_required (matches Coq: Theorem MEM_090_capability_required)
(assert (= (ig_capability_required riina_isolation) true)) ; MEM_090_capability_required

; MEM_091_isolation_implies_domain_separation (matches Coq: Theorem MEM_091_isolation_implies_domain_separation)
(assert (= true true)) ; MEM_091_isolation_implies_domain_separation [untranslatable]

; MEM_092_isolation_implies_permission_enforcement (matches Coq: Theorem MEM_092_isolation_implies_permission_enforcement)
(assert (= true true)) ; MEM_092_isolation_implies_permission_enforcement [untranslatable]

; MEM_093_isolation_implies_cross_domain_check (matches Coq: Theorem MEM_093_isolation_implies_cross_domain_check)
(assert (= true true)) ; MEM_093_isolation_implies_cross_domain_check [untranslatable]

; MEM_094_isolation_implies_capability (matches Coq: Theorem MEM_094_isolation_implies_capability)
(assert (= true true)) ; MEM_094_isolation_implies_capability [untranslatable]

; MEM_095_complete_isolation (matches Coq: Theorem MEM_095_complete_isolation)
(assert (= true true)) ; MEM_095_complete_isolation [untranslatable]

; MEM_096_kernel_can_access_kernel (matches Coq: Theorem MEM_096_kernel_can_access_kernel)
(assert (= (domain_can_access DomainKernel DomainKernel) true)) ; MEM_096_kernel_can_access_kernel

; MEM_097_kernel_can_access_user (matches Coq: Theorem MEM_097_kernel_can_access_user)
(assert (= (domain_can_access DomainKernel DomainUser) true)) ; MEM_097_kernel_can_access_user

; MEM_098_kernel_can_access_guest (matches Coq: Theorem MEM_098_kernel_can_access_guest)
(assert (= (domain_can_access DomainKernel DomainGuest) true)) ; MEM_098_kernel_can_access_guest

; MEM_099_kernel_can_access_untrusted (matches Coq: Theorem MEM_099_kernel_can_access_untrusted)
(assert (= (domain_can_access DomainKernel DomainUntrusted) true)) ; MEM_099_kernel_can_access_untrusted

; MEM_100_user_cannot_access_kernel (matches Coq: Theorem MEM_100_user_cannot_access_kernel)
(assert (= (domain_can_access DomainUser DomainKernel) false)) ; MEM_100_user_cannot_access_kernel

; MEM_101_user_can_access_user (matches Coq: Theorem MEM_101_user_can_access_user)
(assert (= (domain_can_access DomainUser DomainUser) true)) ; MEM_101_user_can_access_user

; MEM_102_guest_cannot_access_user (matches Coq: Theorem MEM_102_guest_cannot_access_user)
(assert (= (domain_can_access DomainGuest DomainUser) false)) ; MEM_102_guest_cannot_access_user

; MEM_103_untrusted_cannot_access_guest (matches Coq: Theorem MEM_103_untrusted_cannot_access_guest)
(assert (= (domain_can_access DomainUntrusted DomainGuest) false)) ; MEM_103_untrusted_cannot_access_guest

; MEM_104_domain_access_reflexive (matches Coq: Theorem MEM_104_domain_access_reflexive)
(assert (= true true)) ; MEM_104_domain_access_reflexive [untranslatable]

; MEM_105_domain_hierarchy_transitive (matches Coq: Theorem MEM_105_domain_hierarchy_transitive)
(assert (= true true)) ; MEM_105_domain_hierarchy_transitive [untranslatable]

; MEM_106_kernel_read_kernel_region (matches Coq: Theorem MEM_106_kernel_read_kernel_region)
(assert (= (secure_region_can_read kernel_region DomainKernel) true)) ; MEM_106_kernel_read_kernel_region

; MEM_107_user_cannot_read_kernel_region (matches Coq: Theorem MEM_107_user_cannot_read_kernel_region)
(assert (= (secure_region_can_read kernel_region DomainUser) false)) ; MEM_107_user_cannot_read_kernel_region

; MEM_108_kernel_read_user_region (matches Coq: Theorem MEM_108_kernel_read_user_region)
(assert (= (secure_region_can_read user_region DomainKernel) true)) ; MEM_108_kernel_read_user_region

; MEM_109_user_read_user_region (matches Coq: Theorem MEM_109_user_read_user_region)
(assert (= (secure_region_can_read user_region DomainUser) true)) ; MEM_109_user_read_user_region

; MEM_110_guest_read_guest_region (matches Coq: Theorem MEM_110_guest_read_guest_region)
(assert (= (secure_region_can_read guest_region DomainGuest) true)) ; MEM_110_guest_read_guest_region

; MEM_111_guest_cannot_write_guest_region (matches Coq: Theorem MEM_111_guest_cannot_write_guest_region)
(assert (= (secure_region_can_write guest_region DomainGuest) false)) ; MEM_111_guest_cannot_write_guest_region

; MEM_112_kernel_write_user_region (matches Coq: Theorem MEM_112_kernel_write_user_region)
(assert (= (secure_region_can_write user_region DomainKernel) true)) ; MEM_112_kernel_write_user_region

; MEM_113_read_requires_allocation (matches Coq: Theorem MEM_113_read_requires_allocation)
(assert (= true true)) ; MEM_113_read_requires_allocation [untranslatable]

; MEM_114_write_requires_allocation (matches Coq: Theorem MEM_114_write_requires_allocation)
(assert (= true true)) ; MEM_114_write_requires_allocation [untranslatable]

; MEM_115_read_requires_permission (matches Coq: Theorem MEM_115_read_requires_permission)
(assert (= true true)) ; MEM_115_read_requires_permission [untranslatable]

; MEM_116_full_memory_safe_implies_stack (matches Coq: Theorem MEM_116_full_memory_safe_implies_stack)
(assert (= true true)) ; MEM_116_full_memory_safe_implies_stack [untranslatable]

; MEM_117_full_memory_safe_implies_heap (matches Coq: Theorem MEM_117_full_memory_safe_implies_heap)
(assert (= true true)) ; MEM_117_full_memory_safe_implies_heap [untranslatable]

; MEM_118_full_memory_safe_implies_isolation (matches Coq: Theorem MEM_118_full_memory_safe_implies_isolation)
(assert (= true true)) ; MEM_118_full_memory_safe_implies_isolation [untranslatable]

; MEM_119_riina_full_protection (matches Coq: Theorem MEM_119_riina_full_protection)
(assert (and (= (memory_safe riina_mem_safety) true) (= (stack_protected riina_stack) true) (= (heap_protected riina_heap) true) (= (isolation_protected riina_isolation) true))) ; MEM_119_riina_full_protection

; MEM_120_no_uaf_with_tracking (matches Coq: Theorem MEM_120_no_uaf_with_tracking)
(assert (= true true)) ; MEM_120_no_uaf_with_tracking [untranslatable]

; MEM_121_no_double_free_with_tracking (matches Coq: Theorem MEM_121_no_double_free_with_tracking)
(assert (= true true)) ; MEM_121_no_double_free_with_tracking [untranslatable]

; MEM_122_null_safety_complete (matches Coq: Theorem MEM_122_null_safety_complete)
(assert (= true true)) ; MEM_122_null_safety_complete [untranslatable]

; MEM_123_bounds_safety_complete (matches Coq: Theorem MEM_123_bounds_safety_complete)
(assert (= true true)) ; MEM_123_bounds_safety_complete [untranslatable]

; MEM_124_ptr_safe_zero_offset (matches Coq: Theorem MEM_124_ptr_safe_zero_offset)
(assert (= true true)) ; MEM_124_ptr_safe_zero_offset [untranslatable]

; MEM_125_complete_memory_safety_riina (matches Coq: Theorem MEM_125_complete_memory_safety_riina)
(assert (=> (= (memory_safe riina_mem_safety) true) (and (= (uaf_protected riina_uaf) true) (= (df_protected riina_df) true) (= (nd_protected riina_nd) true) (= (bounds_protected riina_bounds) true) (= (stack_protected riina_stack) true) (= (heap_protected riina_heap) true) (= (isolation_protected riina_isolation) true)))) ; MEM_125_complete_memory_safety_riina

; MEM_126_safe_range_valid_pointer (matches Coq: Theorem MEM_126_safe_range_valid_pointer)
(assert (= (ptr_safe_for_access_range valid_pointer 10) true)) ; MEM_126_safe_range_valid_pointer

; MEM_127_unsafe_range_exceeds_bounds (matches Coq: Theorem MEM_127_unsafe_range_exceeds_bounds)
(assert (= (ptr_safe_for_access_range valid_pointer 91) false)) ; MEM_127_unsafe_range_exceeds_bounds

; MEM_128_null_unsafe_for_range (matches Coq: Theorem MEM_128_null_unsafe_for_range)
(assert (= (ptr_safe_for_access_range null_pointer 1) false)) ; MEM_128_null_unsafe_for_range

; MEM_129_dangling_unsafe_for_range (matches Coq: Theorem MEM_129_dangling_unsafe_for_range)
(assert (= (ptr_safe_for_access_range dangling_pointer 1) false)) ; MEM_129_dangling_unsafe_for_range

; MEM_130_safe_range_implies_valid (matches Coq: Theorem MEM_130_safe_range_implies_valid)
(assert (= true true)) ; MEM_130_safe_range_implies_valid [untranslatable]

; MEM_131_zero_range_safe_if_valid (matches Coq: Theorem MEM_131_zero_range_safe_if_valid)
(assert (= true true)) ; MEM_131_zero_range_safe_if_valid [untranslatable]

; MEM_132_safe_range_monotonic (matches Coq: Theorem MEM_132_safe_range_monotonic)
(assert (= true true)) ; MEM_132_safe_range_monotonic [untranslatable]

; MEM_133_single_access_from_range (matches Coq: Theorem MEM_133_single_access_from_range)
(assert (= true true)) ; MEM_133_single_access_from_range [untranslatable]

; MEM_134_out_of_bounds_unsafe (matches Coq: Theorem MEM_134_out_of_bounds_unsafe)
(assert (= true true)) ; MEM_134_out_of_bounds_unsafe [untranslatable]

; MEM_135_safe_implies_not_exceeds_bounds (matches Coq: Theorem MEM_135_safe_implies_not_exceeds_bounds)
(assert (= true true)) ; MEM_135_safe_implies_not_exceeds_bounds [untranslatable]

; Verify all assertions are satisfiable
(check-sat)
(exit)
